NAME: ulysses22.tsp
TYPE: TSP
COMMENT: Odyssey of Ulysses (Groetschel/Padberg) 75.66514947135613
DIMENSION: 22
EDGE_WEIGHT_TYPE: GEO
DISPLAY_DATA_TYPE: COORD_DISPLAY
NODE_COORD_SECTION
3824 2042
3957 2615
4056 2532
3626 2312
3348 1054
3756 1219
3842 1311
3752 2044
4123 910
4117 1305
3608 -521
3847 1513
3815 1535
3751 1517
3549 1432
3936 1956
3809 2436
3609 2300
4044 1357
4033 1415
4037 1423
3757 2256
EOF